% demand
num_movements = 28;
loading_factor = [1650, 1450, 2000, 1250, 1550, 2000, 1100, 1850, 1500, 950, 1250, 850, 1350, 2000, 1250, 900, 800, 1750, 1600, 1750, 1850, 1000, 1200, 1650, 1700, 2000, 1650, 1750];
pickup_time = [0, 0, 0, 0, 0, 0, 0, 1, 1, 1, 1, 1, 1, 1, 1, 2, 2, 2, 2, 2, 3, 3, 4, 4, 4, 4, 4, 5];
delivery_time = [1, 1, 1, 1, 1, 1, 1, 2, 2, 2, 2, 2, 2, 2, 2, 4, 3, 3, 3, 5, 4, 4, 5, 5, 5, 5, 5, 6];

% transporter definition
total_capacity = 11000;
num_decks = 4;
capacity = [3000, 3000, 1000, 4000];

% ways out of decks
num_ways_out = 2;
paths_out = array3d(decks, ways_out, decks, [
% ways out of deck d1
2, 4, 0, 0, 3, 4, 0, 0, 

% ways out of deck d2
4, 0, 0, 0, 0, 0, 0, 0,	

% ways out of deck d3
4, 0, 0, 0, 0, 0, 0, 0,	

% ways out of deck d4
0, 0, 0, 0,	0, 0, 0, 0,	

]);

